VRPTWMS/instances/mip/freight/4/N4-C_DV10-C_SV50_F10_8_No_1.log

Gurobi 6.0.4 (win64) logging started 06/18/15 16:07:38

Read LP format model from file C:\MT\repository\VRPTWMS\instances\mip\freight\N4-C_DV10-C_SV50_F10_8_No_1.lp
Reading time = 0.00 seconds
(null): 113 rows, 81 columns, 399 nonzeros
Optimize a model with 113 rows, 81 columns and 399 nonzeros
Model has 100 quadratic constraints
Coefficient statistics:
  Matrix range    [1e+00, 1e+06]
  Objective range [3e+04, 1e+07]
  Bounds range    [1e+00, 1e+06]
  RHS range       [1e+00, 1e+06]
Presolve removed 33 rows and 16 columns
Presolve time: 0.01s
Presolved: 316 rows, 191 columns, 1243 nonzeros
Variable types: 110 continuous, 81 integer (55 binary)
Found heuristic solution: objective 4.144400e+07
Found heuristic solution: objective 2.120760e+07

Root relaxation: objective 1.077129e+07, 35 iterations, 0.00 seconds

    Nodes    |    Current Node    |     Objective Bounds      |     Work
 Expl Unexpl |  Obj  Depth IntInf | Incumbent    BestBd   Gap | It/Node Time

     0     0 1.0771e+07    0    6 2.1208e+07 1.0771e+07  49.2%     -    0s
     0     0 1.0827e+07    0   27 2.1208e+07 1.0827e+07  48.9%     -    0s
     0     0 1.0945e+07    0    9 2.1208e+07 1.0945e+07  48.4%     -    0s
     0     0 1.0945e+07    0   10 2.1208e+07 1.0945e+07  48.4%     -    0s
     0     0 1.0945e+07    0   11 2.1208e+07 1.0945e+07  48.4%     -    0s
     0     0 1.0945e+07    0    9 2.1208e+07 1.0945e+07  48.4%     -    0s
     0     2 1.0945e+07    0    6 2.1208e+07 1.0945e+07  48.4%     -    0s
*   20     0              10    2.096870e+07 1.2694e+07  39.5%  24.8    0s

Cutting planes:
  Gomory: 3
  Cover: 2
  Implied bound: 10
  Clique: 15
  MIR: 10
  Flow cover: 2

Explored 37 nodes (933 simplex iterations) in 0.05 seconds
Thread count was 2 (of 4 available processors)

Optimal solution found (tolerance 1.00e-04)
Best objective 2.096870000000e+07, best bound 2.096870000000e+07, gap 0.0%
k_c1	60000.0
k_c2	20000.0
k_c3	100000.0
k_c4	100000.0
k_dN	-0.0
kDash_c1	-0.0
kDash_c2	-0.0
kDash_c3	60000.0
kDash_c4	60000.0
o_1	-5.551115123125783E-17
o_2	-0.0
o_3	-0.0
o_4	-0.0
p_1	-5.551115123125783E-17
p_2	0.0
p_3	-1.4594991881722308E-12
p_4	0.0
phi_c1	81046.99999999994
phi_c2	5519.0
phi_c3	89791.00000000001
phi_c4	82939.99999999997
phi_d0	100000.0
phi_dN	-0.0
pi_c1	-0.0
pi_c2	-0.0
pi_c3	-0.0
pi_c4	-0.0
pi_dN	-0.0
tauD_c1	450000.0
tauD_c2	700000.0
tauD_c3	600000.0
tauD_c4	63750.0
tauD_d0	-0.0
tauD_dN	1000000.0
tauS_c1	6924.99999963853
tauS_c2	867649.9999988452
tauS_c3	881850.0
tauS_c4	856250.0
tauS_d0	-0.0
tauS_dN	142925.0
x_c1_dN	1.0
x_c2_dN	1.0
x_c3_c2	1.0
x_c4_c1	1.0
x_d0_c3	1.0
x_d0_c4	1.0
